letting initialStacks = [2, 47, 45, 7, 8, 18, 43, 14, 37, 32, 20, 44, 24, 25, 11, 46, 16, 38, 4, 21, 9, 41, 35, 49, 40, 36, 39, 34, 17, 23, 26, 10, 50, 33, 12, 5, 48, 27, 51, 3, 29, 19, 6, 31, 42, 30, 1, 28, 22, 13, 15]
